
  32    4
  10   10   10   10

   0   0   0   0   0   9 2 9 17 18 19 28 29 30 31 
   5  10  10  10  10   3 27 25 3 
   4  10  10  10  10   2 24 4 
   2  10  10  10  10   1 5 
   3  10  10  10  10   1 6 
   9  10  10  10  10   2 23 7 
   8  10  10  10  10   1 8 
   9  10  10  10  10   1 10 
   8  10  10  10  10   1 10 
   3  10  10  10  10   2 22 11 
   1  10  10  10  10   1 12 
   5  10  10  10  10   1 13 
   8  10  10  10  10   2 21 14 
   3  10  10  10  10   1 15 
   5  10  10  10  10   1 16 
   4  10  10  10  10   1 20 
   5  10  10  10  10   1 26 
   8  10  10  10  10   1 25 
   3  10  10  10  10   1 24 
  10  10  10  10  10   1 32
   3  10  10  10  10   1 32
   3  10  10  10  10   1 32
   9  10  10  10  10   1 32
   3  10  10  10  10   1 32
   7  10  10  10  10   1 32
   6  10  10  10  10   1 32
   2  10  10  10  10   1 32
   3  10  10  10  10   1 32
   8  10  10  10  10   1 32
   3  10  10  10  10   1 32
   4  10  10  10  10   1 32
   0   0   0   0   0   0 
